0000000000000000
0000000000000000
0000000010000000
0000000110000000
0000011111000000
0000000001000000
0000000001100000
0000000000100000
0000000001100000
0000000011100000
0000001101110000
0000010001000000
0000000000000000
0000000000000000
0000000000000000
0000000000000000
